1 -1 -2 0
1 3 -4 0
1 3 -5 0
1 6 -7 0
1 -6 -8 0
1 6 -9 0
1 10 -8 0
1 10 -4 0
1 10 9 0
1 10 -5 0
1 -9 11 0
1 9 -12 0
1 9 13 0
1 -9 14 0
1 -15 10 0
1 -15 -3 0
1 15 14 0
1 15 -16 0
1 4 11 0
1 -4 17 0
1 4 -1 0
1 5 3 0
1 5 17 0
1 -5 18 0
1 12 -8 0
1 14 19 0
1 20 -7 0
1 20 14 0
1 21 -22 0
1 21 -23 0
1 21 -20 0
1 -21 10 0
1 21 24 0
1 -21 -25 0
1 21 -26 0
1 8 16 0
1 8 -27 0
1 -28 -20 0
1 28 -29 0
1 -28 14 0
1 28 16 0
1 -7 -20 0
1 7 -10 0
1 7 24 0
1 -7 -6 0
1 30 23 0
1 30 -8 0
1 30 -31 0
1 25 -32 0
1 -25 31 0
1 -19 -20 0
1 -19 14 0
1 -32 -23 0
1 -32 -25 0
1 32 -14 0
1 -32 -19 0
1 32 -33 0
1 -31 -34 0
1 -31 27 0
1 -35 25 0
1 35 33 0
1 35 36 0
1 35 -27 0
1 2 37 0
1 2 -38 0
1 39 37 0
1 -39 -38 0
1 39 2 0
1 40 -41 0
1 40 42 0
1 40 -43 0
1 40 38 0
1 43 -41 0
1 -43 44 0
1 -43 -45 0
1 43 42 0
1 -43 -38 0
1 -43 46 0
1 43 40 0
1 -44 47 0
1 -44 -48 0
1 -44 -38 0
1 44 40 0
1 -38 44 0
1 -38 47 0
1 38 43 0
1 38 -49 0
1 -38 50 0
1 38 51 0
1 41 37 0
1 41 52 0
1 41 -53 0
1 -37 -43 0
1 -37 -40 0
1 -51 44 0
1 51 45 0
1 -51 4 0
1 -48 44 0
1 -48 51 0
1 17 42 0
1 -17 -4 0
1 -17 -54 0
1 -17 -5 0
1 55 -56 0
1 55 -20 0
1 -55 -4 0
1 55 57 0
1 -55 5 0
1 42 -58 0
1 42 11 0
1 42 48 0
1 -42 17 0
1 42 51 0
1 42 -40 0
1 56 -59 0
1 45 -60 0
1 -46 61 0
1 46 45 0
1 46 -62 0
1 46 -50 0
1 13 -11 0
1 -13 63 0
1 -13 50 0
1 13 56 0
1 -13 15 0
1 -11 -47 0
1 -11 -42 0
1 -11 -63 0
1 11 64 0
1 -11 -4 0
1 -11 28 0
1 -11 -54 0
1 -11 -15 0
1 65 -66 0
1 65 63 0
1 65 -54 0
1 66 22 0
1 -66 -7 0
1 66 63 0
1 -66 -65 0
1 66 18 0
1 -64 55 0
1 64 67 0
1 64 -24 0
1 -64 65 0
1 -64 27 0
1 -54 66 0
1 54 -11 0
1 -54 -64 0
1 -54 -67 0
1 54 -17 0
1 -54 68 0
1 54 -36 0
1 -63 -11 0
1 63 -67 0
1 -63 59 0
1 -63 -13 0
1 63 17 0
1 63 68 0
1 57 63 0
1 -57 -67 0
1 -57 -69 0
1 57 59 0
1 57 -65 0
1 24 -8 0
1 -24 -28 0
1 24 70 0
1 -24 -21 0
1 -24 31 0
1 27 58 0
1 -27 7 0
1 -27 -71 0
1 27 -35 0
1 -27 -28 0
1 72 -73 0
1 -72 -35 0
1 -72 -31 0
1 -36 -71 0
1 36 -74 0
1 36 -35 0
1 -36 -72 0
1 36 -75 0
1 -36 -29 0
1 70 71 0
1 -70 76 0
1 70 9 0
1 -70 -77 0
1 -70 -78 0
1 70 -79 0
1 70 -36 0
1 -71 -76 0
1 71 24 0
1 71 -15 0
1 -71 79 0
1 71 -36 0
1 -75 67 0
1 75 -72 0
1 75 68 0
1 75 -36 0
1 -18 80 0
1 18 -81 0
1 -18 65 0
1 -18 -82 0
1 -18 -68 0
1 76 -71 0
1 -76 -74 0
1 33 -71 0
1 -33 73 0
1 -33 -70 0
1 33 31 0
1 33 19 0
1 83 81 0
1 -79 73 0
1 79 -74 0
1 79 84 0
1 79 -26 0
1 79 -82 0
1 26 -85 0
1 26 74 0
1 26 86 0
1 -26 -87 0
1 26 88 0
1 -74 8 0
1 -74 85 0
1 74 89 0
1 74 -87 0
1 -74 -26 0
1 74 -88 0
1 74 33 0
1 29 85 0
1 29 86 0
1 -29 -90 0
1 29 -78 0
1 -73 -91 0
1 -73 86 0
1 92 84 0
1 88 -74 0
1 -89 -34 0
1 -87 -89 0
1 87 84 0
1 87 93 0
1 94 89 0
1 94 -88 0
1 94 -19 0
1 94 -79 0
1 94 -95 0
1 93 -89 0
1 93 -32 0
1 -93 92 0
1 93 83 0
1 34 -96 0
1 34 97 0
1 -34 -86 0
1 -34 -88 0
1 84 -96 0
1 -84 -97 0
1 -84 35 0
1 -84 -89 0
1 84 -34 0
1 -84 -86 0
1 -98 -99 0
1 -98 100 0
1 -98 -2 0
1 -99 -98 0
1 101 102 0
1 101 -100 0
1 -101 103 0
1 -104 105 0
1 -104 106 0
1 104 107 0
1 106 -108 0
1 -106 -101 0
1 100 98 0
1 -105 -109 0
1 105 -110 0
1 105 -100 0
1 -108 -41 0
1 108 -110 0
1 -108 -102 0
1 -108 -53 0
1 -52 111 0
1 52 -112 0
1 52 37 0
1 -52 103 0
1 -52 -113 0
1 52 114 0
1 -112 41 0
1 112 55 0
1 -112 102 0
1 -112 -115 0
1 -112 116 0
1 114 117 0
1 114 112 0
1 -114 62 0
1 114 -101 0
1 114 -118 0
1 102 -117 0
1 -119 120 0
1 -119 -104 0
1 -119 121 0
1 122 -112 0
1 122 -108 0
1 -122 -123 0
1 122 52 0
1 -50 -45 0
1 50 -102 0
1 50 -46 0
1 -50 -124 0
1 -47 11 0
1 47 -44 0
1 -47 -125 0
1 -47 37 0
1 47 -38 0
1 62 126 0
1 -62 45 0
1 61 111 0
1 61 -66 0
1 61 49 0
1 111 116 0
1 -111 -62 0
1 -127 -117 0
1 -127 -61 0
1 -127 -62 0
1 -115 -128 0
1 -115 129 0
1 115 130 0
1 59 -58 0
1 59 111 0
1 59 -131 0
1 59 126 0
1 59 63 0
1 59 -116 0
1 59 24 0
1 -59 132 0
1 -59 -49 0
1 -59 46 0
1 59 -57 0
1 58 126 0
1 58 63 0
1 58 116 0
1 58 132 0
1 -58 46 0
1 -69 126 0
1 69 -60 0
1 69 133 0
1 -134 116 0
1 -134 -135 0
1 -134 136 0
1 126 44 0
1 -126 -59 0
1 -126 49 0
1 -49 58 0
1 -49 126 0
1 49 67 0
1 49 -38 0
1 -49 62 0
1 131 58 0
1 -131 -137 0
1 -131 132 0
1 131 62 0
1 131 134 0
1 -132 58 0
1 132 138 0
1 -67 60 0
1 67 139 0
1 67 -76 0
1 -67 -75 0
1 -67 135 0
1 -67 -57 0
1 68 126 0
1 68 139 0
1 68 -54 0
1 -68 64 0
1 68 67 0
1 -68 75 0
1 -68 -49 0
1 68 57 0
1 68 130 0
1 81 -126 0
1 81 140 0
1 81 141 0
1 -82 139 0
1 82 142 0
1 -82 -49 0
1 -82 -135 0
1 -82 -143 0
1 -82 18 0
1 -139 -144 0
1 -139 -81 0
1 -139 -69 0
1 -133 139 0
1 133 -67 0
1 133 68 0
1 60 144 0
1 60 45 0
1 -60 67 0
1 -60 145 0
1 60 -68 0
1 -135 146 0
1 -135 147 0
1 135 145 0
1 80 -75 0
1 -80 70 0
1 -78 -80 0
1 -78 -139 0
1 78 148 0
1 -78 -88 0
1 78 133 0
1 -78 -149 0
1 -78 -18 0
1 91 73 0
1 91 -150 0
1 -91 -29 0
1 -151 73 0
1 -151 142 0
1 151 -149 0
1 -151 152 0
1 -142 91 0
1 -142 -81 0
1 142 64 0
1 -142 -153 0
1 142 -154 0
1 -142 149 0
1 149 97 0
1 149 91 0
1 148 155 0
1 148 144 0
1 148 -91 0
1 148 81 0
1 -148 151 0
1 -148 82 0
1 140 -156 0
1 -140 -155 0
1 140 -91 0
1 140 -80 0
1 140 -81 0
1 140 -154 0
1 140 147 0
1 -140 78 0
1 -85 150 0
1 85 86 0
1 85 -34 0
1 -86 73 0
1 -86 -34 0
1 -97 -157 0
1 97 -158 0
1 -97 -142 0
1 97 -77 0
1 -97 90 0
1 -159 -97 0
1 -159 84 0
1 -159 -77 0
1 159 -149 0
1 -77 -160 0
1 77 97 0
1 77 91 0
1 -77 159 0
1 77 -151 0
1 -77 161 0
1 160 162 0
1 -160 85 0
1 -150 -97 0
1 150 163 0
1 -150 -75 0
1 150 159 0
1 150 164 0
1 150 161 0
1 -150 152 0
1 150 -165 0
1 -152 -156 0
1 -152 -97 0
1 -152 -85 0
1 -152 -91 0
1 152 -166 0
1 152 86 0
1 96 160 0
1 96 77 0
1 -96 -90 0
1 96 -34 0
1 96 94 0
1 167 96 0
1 167 -93 0
1 168 -77 0
1 -169 -157 0
1 -169 166 0
1 -169 170 0
1 -171 172 0
1 -171 -173 0
1 -171 169 0
1 -171 167 0
1 171 174 0
1 -171 -175 0
1 -171 -168 0
1 158 -97 0
1 158 -175 0
1 -158 -176 0
1 -90 -157 0
1 -90 -161 0
1 -157 -177 0
1 -157 178 0
1 157 -167 0
1 -157 159 0
1 -157 -161 0
1 -176 158 0
1 -176 -179 0
1 176 -173 0
1 -173 180 0
1 173 -170 0
1 -173 -95 0
1 175 -180 0
1 175 -95 0
1 -181 180 0
1 181 171 0
1 -181 175 0
1 -95 181 0
1 -95 182 0
1 -95 -175 0
1 -95 -183 0
1 -95 176 0
1 95 168 0
1 179 95 0
1 179 184 0
1 -179 -169 0
1 170 185 0
1 -170 173 0
1 170 -186 0
1 170 -174 0
1 170 187 0
1 180 185 0
1 -180 -84 0
1 180 188 0
1 180 182 0
1 -180 -186 0
1 180 -174 0
1 -180 168 0
1 -189 190 0
1 189 -98 0
1 -191 -190 0
1 191 192 0
1 193 -101 0
1 107 104 0
1 -107 -194 0
1 -107 192 0
1 -107 -195 0
1 -107 193 0
1 -196 110 0
1 196 193 0
1 -196 -189 0
1 195 -109 0
1 -195 -107 0
1 -195 -191 0
1 -195 113 0
1 -190 191 0
1 190 -192 0
1 190 193 0
1 192 -107 0
1 192 189 0
1 197 105 0
1 -197 110 0
1 -197 -100 0
1 -197 -198 0
1 110 108 0
1 113 -194 0
1 -113 -195 0
1 -113 199 0
1 -109 105 0
1 109 200 0
1 -109 -195 0
1 194 -125 0
1 194 107 0
1 -194 -201 0
1 194 113 0
1 -198 202 0
1 -198 -120 0
1 -198 -194 0
1 198 201 0
1 -198 197 0
1 200 107 0
1 200 -197 0
1 199 -113 0
1 199 -203 0
1 124 -204 0
1 124 100 0
1 -125 204 0
1 -125 -106 0
1 -125 -124 0
1 125 -119 0
1 125 198 0
1 121 205 0
1 -121 120 0
1 -121 -206 0
1 121 -194 0
1 -121 207 0
1 -121 208 0
1 121 119 0
1 120 61 0
1 120 -194 0
1 -120 -207 0
1 120 -209 0
1 -120 -210 0
1 -120 119 0
1 120 -198 0
1 -209 -120 0
1 -209 109 0
1 -209 -211 0
1 -209 -113 0
1 -205 -212 0
1 -205 211 0
1 205 -124 0
1 207 -204 0
1 -207 120 0
1 -207 -213 0
1 -207 214 0
1 -207 -121 0
1 207 124 0
1 -207 215 0
1 204 216 0
1 204 -120 0
1 204 207 0
1 204 201 0
1 204 -124 0
1 217 -205 0
1 -217 122 0
1 -217 59 0
1 -217 -114 0
1 117 -218 0
1 -117 -219 0
1 117 -206 0
1 117 102 0
1 117 217 0
1 -117 -210 0
1 -129 123 0
1 -129 -115 0
1 129 -220 0
1 -129 136 0
1 -136 -221 0
1 136 115 0
1 136 -129 0
1 -136 -220 0
1 136 118 0
1 -136 -127 0
1 208 117 0
1 -208 -128 0
1 -208 121 0
1 -206 106 0
1 206 222 0
1 206 -217 0
1 -206 -208 0
1 -206 143 0
1 206 130 0
1 210 117 0
1 210 219 0
1 -210 -100 0
1 210 -223 0
1 -219 222 0
1 219 211 0
1 219 -217 0
1 219 -136 0
1 128 115 0
1 130 111 0
1 130 131 0
1 -130 -221 0
1 130 -128 0
1 130 -208 0
1 -141 -131 0
1 141 224 0
1 -141 132 0
1 141 -220 0
1 141 -143 0
1 141 -118 0
1 -143 -131 0
1 -143 132 0
1 118 225 0
1 -118 141 0
1 -118 -221 0
1 118 128 0
1 -221 -225 0
1 221 -137 0
1 -221 -226 0
1 -221 -145 0
1 -221 -136 0
1 -220 225 0
1 -220 -123 0
1 -220 143 0
1 220 130 0
1 220 136 0
1 -123 122 0
1 123 -220 0
1 123 227 0
1 -123 -136 0
1 -137 -228 0
1 -137 224 0
1 -137 135 0
1 -137 -145 0
1 -145 228 0
1 -145 229 0
1 -145 -135 0
1 -145 -227 0
1 -145 -118 0
1 -146 -221 0
1 -146 -230 0
1 -230 -231 0
1 230 -232 0
1 230 -229 0
1 230 233 0
1 -228 234 0
1 228 -235 0
1 228 147 0
1 -228 -230 0
1 228 -143 0
1 -229 228 0
1 -229 144 0
1 229 -116 0
1 236 225 0
1 -236 237 0
1 236 -230 0
1 236 -127 0
1 224 225 0
1 224 -146 0
1 224 137 0
1 -224 -141 0
1 224 235 0
1 144 -228 0
1 -144 -232 0
1 -144 -147 0
1 -144 -233 0
1 -147 -228 0
1 147 -232 0
1 147 -148 0
1 -147 229 0
1 -147 233 0
1 155 148 0
1 155 -229 0
1 -155 138 0
1 155 -238 0
1 -155 140 0
1 239 -237 0
1 -232 155 0
1 232 144 0
1 232 -146 0
1 -232 166 0
1 -232 -230 0
1 -233 154 0
1 -233 239 0
1 233 -240 0
1 231 241 0
1 231 -242 0
1 -231 -155 0
1 -231 -131 0
1 -231 -144 0
1 -231 -243 0
1 231 -146 0
1 231 147 0
1 -231 -230 0
1 138 231 0
1 138 -146 0
1 -138 244 0
1 -156 232 0
1 -156 148 0
1 156 -150 0
1 -156 -233 0
1 -156 -245 0
1 -156 238 0
1 -156 140 0
1 154 246 0
1 154 148 0
1 -154 -142 0
1 154 235 0
1 154 -152 0
1 165 -166 0
1 165 150 0
1 -166 247 0
1 -166 165 0
1 -166 248 0
1 166 150 0
1 247 155 0
1 247 249 0
1 247 -250 0
1 -247 -239 0
1 238 178 0
1 -238 -247 0
1 238 239 0
1 238 -133 0
1 246 -156 0
1 246 60 0
1 -246 251 0
1 -245 156 0
1 -245 249 0
1 -245 166 0
1 245 -154 0
1 245 252 0
1 -245 165 0
1 161 163 0
1 161 248 0
1 161 153 0
1 161 253 0
1 161 176 0
1 -163 160 0
1 163 173 0
1 163 -77 0
1 -163 90 0
1 163 -238 0
1 163 152 0
1 254 -255 0
1 254 247 0
1 254 -164 0
1 -254 -256 0
1 178 -181 0
1 -178 257 0
1 -178 90 0
1 -178 -238 0
1 -178 254 0
1 153 178 0
1 -153 163 0
1 -153 142 0
1 153 -186 0
1 -153 -258 0
1 153 165 0
1 258 259 0
1 -258 -185 0
1 258 -178 0
1 258 163 0
1 258 260 0
1 -258 -161 0
1 -258 -261 0
1 258 -165 0
1 -248 259 0
1 248 -262 0
1 -248 178 0
1 248 163 0
1 -248 263 0
1 248 260 0
1 -248 165 0
1 -253 249 0
1 -253 -178 0
1 253 -254 0
1 253 -264 0
1 -253 -165 0
1 -174 157 0
1 -174 172 0
1 174 153 0
1 -172 90 0
1 -172 171 0
1 -186 177 0
1 186 -153 0
1 -185 153 0
1 -256 265 0
1 -256 266 0
1 -256 178 0
1 -256 186 0
1 -162 265 0
1 162 267 0
1 162 185 0
1 -162 -178 0
1 -162 256 0
1 162 174 0
1 -164 -265 0
1 -164 -255 0
1 -164 -259 0
1 -164 260 0
1 164 -186 0
1 -255 -164 0
1 255 -260 0
1 255 -186 0
1 255 174 0
1 255 -152 0
1 -182 -162 0
1 182 -177 0
1 182 180 0
1 182 -179 0
1 -182 -256 0
1 266 268 0
1 -266 180 0
1 -266 -95 0
1 -269 177 0
1 269 270 0
1 269 -256 0
1 -269 -271 0
1 -267 -162 0
1 -267 271 0
1 -267 187 0
1 -271 267 0
1 -271 185 0
1 271 272 0
1 268 185 0
1 268 158 0
1 -273 267 0
1 273 274 0
1 -273 275 0
1 -273 -269 0
1 -273 182 0
1 177 266 0
1 177 -182 0
1 276 -268 0
1 -276 188 0
1 -276 -277 0
1 276 271 0
1 276 -187 0
1 -277 268 0
1 277 276 0
1 272 268 0
1 272 -188 0
1 272 274 0
1 -272 278 0
1 -278 188 0
1 278 272 0
1 -183 -184 0
1 183 277 0
1 -184 -267 0
1 -184 -272 0
1 -184 -278 0
1 188 -272 0
1 -188 187 0
1 -201 279 0
1 201 199 0
1 -218 -204 0
1 218 279 0
1 218 280 0
1 -218 -200 0
1 -213 -204 0
1 213 -280 0
1 216 204 0
1 -216 -281 0
1 216 -282 0
1 -280 283 0
1 -280 -213 0
1 280 -284 0
1 -280 -215 0
1 -285 -216 0
1 -285 211 0
1 285 286 0
1 279 -218 0
1 279 -287 0
1 287 218 0
1 287 -279 0
1 287 288 0
1 -287 -213 0
1 287 201 0
1 287 -192 0
1 211 202 0
1 -211 204 0
1 211 205 0
1 -211 285 0
1 -215 205 0
1 215 -219 0
1 215 -207 0
1 -215 -209 0
1 289 -290 0
1 289 281 0
1 289 -284 0
1 -284 202 0
1 284 289 0
1 -284 214 0
1 -284 -285 0
1 -282 -202 0
1 282 291 0
1 282 -194 0
1 -282 -292 0
1 282 -227 0
1 282 284 0
1 -202 293 0
1 -202 294 0
1 202 -295 0
1 202 -296 0
1 281 291 0
1 -281 -203 0
1 281 289 0
1 203 -291 0
1 203 -211 0
1 -222 219 0
1 222 -227 0
1 227 -219 0
1 227 -123 0
1 227 -222 0
1 227 -145 0
1 294 297 0
1 -294 -298 0
1 -296 299 0
1 296 -300 0
1 -296 297 0
1 296 230 0
1 -296 298 0
1 296 -220 0
1 -297 -225 0
1 297 222 0
1 -297 -296 0
1 -212 -225 0
1 -212 301 0
1 212 237 0
1 212 227 0
1 214 302 0
1 214 294 0
1 214 207 0
1 214 -303 0
1 -214 295 0
1 214 -296 0
1 -214 227 0
1 -214 284 0
1 225 299 0
1 -225 123 0
1 -225 297 0
1 225 298 0
1 -226 -299 0
1 226 -297 0
1 -304 -300 0
1 -304 -237 0
1 -237 -300 0
1 -237 -297 0
1 237 -298 0
1 -298 -242 0
1 -298 -305 0
1 298 -237 0
1 298 296 0
1 298 306 0
1 298 -307 0
1 300 -242 0
1 -300 225 0
1 -300 206 0
1 -300 307 0
1 223 -225 0
1 -223 305 0
1 223 -308 0
1 223 237 0
1 223 210 0
1 -299 -309 0
1 -299 305 0
1 299 -307 0
1 242 -302 0
1 242 231 0
1 242 -310 0
1 242 298 0
1 235 231 0
1 -235 310 0
1 -235 -236 0
1 -241 311 0
1 241 231 0
1 -241 312 0
1 -241 313 0
1 -314 -234 0
1 -314 -315 0
1 314 312 0
1 314 138 0
1 -314 -316 0
1 -316 -241 0
1 -316 -317 0
1 -316 315 0
1 -316 235 0
1 -316 -237 0
1 -316 318 0
1 -315 242 0
1 -315 -221 0
1 315 319 0
1 -315 320 0
1 313 242 0
1 313 321 0
1 313 235 0
1 313 -322 0
1 313 -323 0
1 -310 -241 0
1 -310 -242 0
1 310 -314 0
1 -310 237 0
1 310 313 0
1 310 307 0
1 -317 311 0
1 -317 -232 0
1 -317 246 0
1 317 -324 0
1 317 245 0
1 -325 315 0
1 325 324 0
1 325 240 0
1 -325 -323 0
1 325 316 0
1 -257 311 0
1 257 -246 0
1 -257 324 0
1 -257 -244 0
1 -257 240 0
1 -257 -325 0
1 -234 -228 0
1 234 326 0
1 -234 -262 0
1 234 -317 0
1 -234 -314 0
1 -324 241 0
1 -324 249 0
1 324 314 0
1 324 -229 0
1 -324 327 0
1 -311 -241 0
1 -311 328 0
1 -311 314 0
1 -311 312 0
1 -311 327 0
1 -312 317 0
1 -312 314 0
1 -329 -245 0
1 329 -174 0
1 -329 238 0
1 249 238 0
1 -249 -172 0
1 249 328 0
1 249 247 0
1 249 -324 0
1 249 240 0
1 249 -245 0
1 330 -251 0
1 330 -324 0
1 -330 244 0
1 330 240 0
1 -330 -331 0
1 -330 -253 0
1 262 -250 0
1 262 -252 0
1 262 253 0
1 -332 259 0
1 -332 -262 0
1 332 -249 0
1 -332 -257 0
1 240 333 0
1 240 233 0
1 240 329 0
1 -243 -326 0
1 243 249 0
1 -243 333 0
1 -244 326 0
1 244 249 0
1 244 327 0
1 244 -330 0
1 -244 -325 0
1 -260 -255 0
1 -260 259 0
1 -260 -332 0
1 -260 -251 0
1 -260 250 0
1 260 240 0
1 -260 -252 0
1 259 326 0
1 259 -164 0
1 259 334 0
1 -270 -250 0
1 -270 -263 0
1 -270 264 0
1 -335 332 0
1 335 -263 0
1 335 336 0
1 335 240 0
1 250 -265 0
1 -250 -335 0
1 250 247 0
1 250 330 0
1 250 334 0
1 -250 337 0
1 -334 275 0
1 251 335 0
1 251 259 0
1 251 330 0
1 251 -252 0
1 -252 260 0
1 -275 162 0
1 -275 164 0
1 275 -256 0
1 -275 -261 0
1 265 264 0
1 265 277 0
1 -274 -263 0
1 -274 -272 0
1 274 336 0
1 274 -338 0
1 -337 250 0
1 337 -263 0
1 -337 -274 0
1 -337 -336 0
1 -337 273 0
1 -337 278 0
1 337 261 0
1 336 -265 0
1 336 335 0
1 336 275 0
1 -336 270 0
1 -261 335 0
1 -261 274 0
1 261 270 0
1 -261 337 0
1 263 -335 0
1 263 -274 0
1 -263 264 0
1 -263 337 0
1 -264 335 0
1 264 274 0
1 291 290 0
1 -291 -225 0
1 -291 -282 0
1 295 214 0
1 295 286 0
1 -339 -304 0
1 339 -340 0
1 -339 -341 0
1 339 -303 0
1 303 -290 0
1 303 -339 0
1 303 -283 0
1 -303 237 0
1 283 -302 0
1 283 -291 0
1 283 308 0
1 -283 342 0
1 283 303 0
1 -283 -286 0
1 286 302 0
1 286 -339 0
1 286 283 0
1 286 301 0
1 -286 -343 0
1 288 -291 0
1 288 -340 0
1 288 -344 0
1 302 -214 0
1 -301 302 0
1 301 286 0
1 301 345 0
1 309 -341 0
1 -309 -346 0
1 -308 -309 0
1 308 293 0
1 308 347 0
1 292 293 0
1 -292 339 0
1 292 321 0
1 292 305 0
1 -292 301 0
1 -292 348 0
1 292 303 0
1 -292 349 0
1 -293 -309 0
1 -293 -339 0
1 -293 -303 0
1 -293 349 0
1 293 -323 0
1 341 339 0
1 -341 281 0
1 -341 350 0
1 -341 -303 0
1 -341 -349 0
1 -345 -309 0
1 345 302 0
1 307 -293 0
1 307 347 0
1 307 351 0
1 307 299 0
1 307 -223 0
1 307 298 0
1 305 351 0
1 -305 300 0
1 305 317 0
1 -305 313 0
1 -305 307 0
1 -323 -293 0
1 -323 347 0
1 323 351 0
1 323 -352 0
1 323 321 0
1 -323 -346 0
1 353 354 0
1 353 -351 0
1 353 355 0
1 -353 -328 0
1 -353 -297 0
1 -353 356 0
1 353 -323 0
1 -351 355 0
1 -351 -321 0
1 -351 305 0
1 351 -308 0
1 -351 356 0
1 -346 347 0
1 -346 -321 0
1 346 305 0
1 -346 -356 0
1 346 -349 0
1 347 -309 0
1 -347 -357 0
1 -347 -358 0
1 -347 346 0
1 347 -356 0
1 320 315 0
1 320 353 0
1 320 329 0
1 328 -249 0
1 -328 310 0
1 -328 320 0
1 331 -311 0
1 -331 351 0
1 331 330 0
1 -331 -306 0
1 331 -318 0
1 359 -351 0
1 -359 -360 0
1 359 319 0
1 -359 -361 0
1 306 -362 0
1 306 -352 0
1 306 -331 0
1 -306 -323 0
1 -352 -362 0
1 352 -359 0
1 -352 300 0
1 352 363 0
1 -352 327 0
1 352 -320 0
1 352 306 0
1 -361 362 0
1 -361 -355 0
1 -361 -328 0
1 361 364 0
1 361 -321 0
1 -361 323 0
1 -364 355 0
1 -364 361 0
1 327 -326 0
1 -327 -306 0
1 -326 311 0
1 -326 -259 0
1 326 365 0
1 326 -324 0
1 366 367 0
1 366 -352 0
1 366 319 0
1 -366 318 0
1 -368 -367 0
1 368 -335 0
1 368 -352 0
1 368 -244 0
1 -368 -322 0
1 -318 -319 0
1 318 -338 0
1 318 -333 0
1 318 -366 0
1 -318 316 0
1 -318 -369 0
1 319 359 0
1 319 333 0
1 -319 327 0
1 -322 370 0
1 -322 362 0
1 322 -365 0
1 322 371 0
1 -365 -370 0
1 365 -368 0
1 365 -359 0
1 -365 -322 0
1 333 -243 0
1 -333 -251 0
1 333 -319 0
1 333 -252 0
1 372 -373 0
1 372 243 0
1 -372 332 0
1 -372 333 0
1 372 -318 0
1 338 367 0
1 338 374 0
1 -338 -371 0
1 338 -369 0
1 369 -251 0
1 -369 338 0
1 369 375 0
1 -373 234 0
1 373 368 0
1 373 366 0
1 375 -368 0
1 375 -338 0
1 -374 372 0
1 -349 344 0
1 349 -293 0
1 -349 347 0
1 349 -342 0
1 -349 -292 0
1 -349 320 0
1 349 345 0
1 358 -293 0
1 358 328 0
1 -358 376 0
1 358 -344 0
1 -377 376 0
1 360 378 0
1 -360 -347 0
1 -360 -376 0
1 -360 350 0
1 360 -348 0
1 -360 -346 0
1 360 344 0
1 -342 355 0
1 -342 -358 0
1 342 356 0
1 343 342 0
1 343 -356 0
1 343 -349 0
1 376 -360 0
1 -376 349 0
1 344 360 0
1 -344 377 0
1 356 -350 0
1 356 -346 0
1 356 -353 0
1 356 -343 0
1 -355 -342 0
1 355 348 0
1 355 346 0
1 -379 380 0
1 -379 357 0
1 379 348 0
1 -379 -366 0
1 379 -361 0
1 -379 343 0
1 -380 -378 0
1 380 -381 0
1 -380 342 0
1 380 348 0
1 348 -371 0
1 348 -292 0
1 348 -363 0
1 -378 360 0
1 378 363 0
1 -378 -348 0
1 -350 360 0
1 350 -379 0
1 350 377 0
1 363 -378 0
1 363 -381 0
1 363 -365 0
1 363 306 0
1 363 322 0
1 362 372 0
1 362 357 0
1 362 381 0
1 -362 -322 0
1 371 -378 0
1 -371 -381 0
1 -371 348 0
1 371 322 0
1 -370 378 0
1 -370 -365 0
1 370 371 0
1 370 -348 0
1 381 -351 0
1 -381 363 0
1 -382 370 0
1 -382 380 0
1 382 371 0
1 382 -363 0
